(declare-fun a50 () (Array (_ BitVec 1) (_ BitVec 5)))
(assert
(let (($e28 (_ bv0 3)))
(let (($e56 (select a50 true              )))
(let (($e58 (store a50 false       $e56)))
(let (($e71 (   extract      $e56)))
(let (($e72 (concat $e28 $e71)))
(let (($e73 (select $e58 (not   $e71       ))))
(let (($e74 ((_ extract 3 0) $e73)))
                 (bvult $e74 $e72)
                                                                                                                                                                                                                                                                                                                                                                                                                                                                           ))))            ) )                      )                           )
